10J3M/DAT/10J3MUTR-14.dat
10 3
47.5998 15.8536
26.2765 26.9357
45.3431 18.0752
23.5513 19.1858
33.4912 17.7917
25.8355 5.845
27.7514 8.9777
15.4951 34.558
2.551 45.0175
45.4403 26.8518
54.773