10J3M/SOL/10J3MUTR-14.sol
solution status: optimal solution found
objective value:                     95.4700111459961
x#1#2                               0.563074759443429 	(obj:0)
x#1#3                               0.436925240556571 	(obj:0)
x#2#3                                               1 	(obj:0)
x#3#3                                               1 	(obj:0)
x#4#2                                               1 	(obj:0)
x#5#1                               0.939501222652635 	(obj:0)
x#5#3                              0.0604987773473649 	(obj:0)
x#6#1                                               1 	(obj:0)
x#7#1                                               1 	(obj:0)
x#8#1                               0.672347245122146 	(obj:0)
x#8#3                              0.0453592193723275 	(obj:0)
x#10#2                              0.992873401175625 	(obj:0)
x#10#3                            0.00712659882437505 	(obj:0)
z                                    95.4700111459961 	(obj:1)
